words_hard_train/8003.qaiger
aag 66 15 0 1 51
2
4
8
12
16
30
40
44
54
64
72
82
94
116
124
132
6 2 4
10 6 8
14 10 12
18 14 16
20 5 13
22 3 9
24 20 22
26 24 17
28 18 27
32 29 31
34 27 30
36 18 34
38 33 37
42 39 41
46 37 44
48 34 45
50 48 18
52 47 51
56 53 55
58 43 57
60 15 17
62 61 19
66 15 64
68 11 13
70 66 69
74 73 5
76 65 13
78 75 77
80 78 11
84 83 9
86 72 4
88 84 87
90 80 89
92 71 91
96 92 95
98 62 97
100 93 94
102 99 101
104 38 40
106 102 105
108 58 107
110 52 54
112 109 111
114 37 45
118 115 116
120 114 117
122 119 121
126 122 124
128 113 127
130 123 125
132 129 131
i0 1 x1[0]
i1 1 x1[2]
i2 1 x1[1]
i3 1 x1[3]
i4 1 x1[4]
i5 1 x1[5]
i6 2 y2[5]
i7 1 x1[6]
i8 2 y2[6]
i9 2 y2[3]
i10 2 y2[2]
i11 2 y2[1]
i12 2 y2[4]
i13 1 x1[7]
i14 2 y2[7]
o0 bv[0]
c
simplified
  <=
    or
      abs
        1
      2 y2
    subtract
      190
      1 x1
