words_hard_train/8003.qaiger.qdimacs
p cnf 66 154
a 1 2 4 6 8 15 22 58 0
e 3 5 7 9 10 11 12 13 14 16 17 18 19 20 21 23 24 25 26 27 28 29 30 31 32 33 34 35 36 37 38 39 40 41 42 43 44 45 46 47 48 49 50 51 52 53 54 55 56 57 59 60 61 62 63 64 65 66 0
-1 -2 3 0
1 -3 0
2 -3 0
-3 -4 5 0
3 -5 0
4 -5 0
-5 -6 7 0
5 -7 0
6 -7 0
-7 -8 9 0
7 -9 0
8 -9 0
2 6 10 0
-2 -10 0
-6 -10 0
1 4 11 0
-1 -11 0
-4 -11 0
-10 -11 12 0
10 -12 0
11 -12 0
-12 8 13 0
12 -13 0
-8 -13 0
-9 13 14 0
9 -14 0
-13 -14 0
14 15 16 0
-14 -16 0
-15 -16 0
13 -15 17 0
-13 -17 0
15 -17 0
-9 -17 18 0
9 -18 0
17 -18 0
16 18 19 0
-16 -19 0
-18 -19 0
19 20 21 0
-19 -21 0
-20 -21 0
18 -22 23 0
-18 -23 0
22 -23 0
-17 22 24 0
17 -24 0
-22 -24 0
-24 -9 25 0
24 -25 0
9 -25 0
23 25 26 0
-23 -26 0
-25 -26 0
26 27 28 0
-26 -28 0
-27 -28 0
21 28 29 0
-21 -29 0
-28 -29 0
7 8 30 0
-7 -30 0
-8 -30 0
30 9 31 0
-30 -31 0
-9 -31 0
7 -32 33 0
-7 -33 0
32 -33 0
5 6 34 0
-5 -34 0
-6 -34 0
-33 34 35 0
33 -35 0
-34 -35 0
36 2 37 0
-36 -37 0
-2 -37 0
32 6 38 0
-32 -38 0
-6 -38 0
37 38 39 0
-37 -39 0
-38 -39 0
-39 5 40 0
39 -40 0
-5 -40 0
41 4 42 0
-41 -42 0
-4 -42 0
-36 -2 43 0
36 -43 0
2 -43 0
-42 43 44 0
42 -44 0
-43 -44 0
-40 44 45 0
40 -45 0
-44 -45 0
35 45 46 0
-35 -46 0
-45 -46 0
-46 47 48 0
46 -48 0
-47 -48 0
-31 48 49 0
31 -49 0
-48 -49 0
46 -47 50 0
-46 -50 0
47 -50 0
49 50 51 0
-49 -51 0
-50 -51 0
-19 -20 52 0
19 -52 0
20 -52 0
-51 52 53 0
51 -53 0
-52 -53 0
-29 53 54 0
29 -54 0
-53 -54 0
-26 -27 55 0
26 -55 0
27 -55 0
54 55 56 0
-54 -56 0
-55 -56 0
18 22 57 0
-18 -57 0
-22 -57 0
57 -58 59 0
-57 -59 0
58 -59 0
-57 58 60 0
57 -60 0
-58 -60 0
59 60 61 0
-59 -61 0
-60 -61 0
-61 -62 63 0
61 -63 0
62 -63 0
56 63 64 0
-56 -64 0
-63 -64 0
61 62 65 0
-61 -65 0
-62 -65 0
64 65 66 0
-64 -66 0
-65 -66 0
66 0
